p cnf 235 1530
110 117 137 230 233 0
104 190 196 0
100 107 127 0
85 135 0
115 131 0
97 142 144 164 0
139 145 147 148 174 0
106 125 151 154 0
94 96 206 0
91 93 121 208 0
88 103 112 193 216 0
87 99 101 128 150 218 0
89 221 0
82 83 113 120 223 0
77 79 116 130 132 202 0
158 162 163 166 167 225 0
140 169 171 0
172 173 178 227 0
126 152 177 0
182 184 187 0
109 191 192 0
197 199 0
165 200 0
175 176 0
153 156 204 207 0
114 122 209 0
118 123 0
188 211 214 0
194 215 217 0
102 219 220 0
86 90 222 224 0
133 160 203 0
161 168 226 0
179 228 0
157 229 0
119 136 231 234 0
180 185 212 235 0
75 76 189 195 0
73 74 84 0
71 72 0
70 138 146 0
68 69 105 155 0
66 67 95 205 0
64 92 0
61 62 63 210 0
59 111 0
56 57 58 0
53 54 55 0
81 129 201 0
50 51 159 0
-49 -137 0
-49 -190 0
-137 -190 0
-88 -99 0
-88 -130 0
-99 -130 0
-48 -200 0
-48 -122 0
-48 -123 0
-122 -200 0
-123 -200 0
-122 -123 0
-211 -215 0
-168 -211 0
-47 -211 0
-168 -215 0
-47 -215 0
-47 -168 0
-81 -159 0
-49 -88 0
-48 -49 0
-49 -211 0
-48 -88 0
-88 -211 0
-48 -211 0
-99 -137 0
-137 -200 0
-137 -215 0
-99 -200 0
-99 -215 0
-200 -215 0
-130 -190 0
-122 -168 0
-81 -122 0
-81 -168 0
-47 -123 0
-123 -159 0
-47 -159 0
-169 -172 0
-169 -177 0
-172 -177 0
-46 -156 0
-46 -65 0
-46 -114 0
-46 -118 0
-65 -156 0
-114 -156 0
-118 -156 0
-65 -114 0
-65 -118 0
-114 -118 0
-52 -86 0
-86 -203 0
-86 -161 0
-45 -86 0
-52 -203 0
-52 -161 0
-45 -52 0
-161 -203 0
-45 -203 0
-45 -161 0
-136 -212 0
-136 -181 0
-136 -189 0
-136 -198 0
-181 -212 0
-189 -212 0
-198 -212 0
-181 -189 0
-181 -198 0
-189 -198 0
-58 -98 0
-55 -98 0
-98 -129 0
-51 -98 0
-55 -58 0
-58 -129 0
-51 -58 0
-55 -129 0
-51 -55 0
-51 -129 0
-46 -86 0
-46 -136 0
-46 -98 0
-86 -136 0
-86 -98 0
-98 -136 0
-52 -156 0
-156 -212 0
-58 -156 0
-52 -212 0
-52 -58 0
-58 -212 0
-65 -169 0
-169 -203 0
-169 -181 0
-55 -169 0
-65 -203 0
-65 -181 0
-55 -65 0
-181 -203 0
-55 -203 0
-55 -181 0
-114 -172 0
-161 -172 0
-172 -189 0
-129 -172 0
-114 -161 0
-114 -189 0
-114 -129 0
-161 -189 0
-129 -161 0
-129 -189 0
-118 -177 0
-45 -177 0
-177 -198 0
-51 -177 0
-45 -118 0
-118 -198 0
-51 -118 0
-45 -198 0
-45 -51 0
-51 -198 0
-145 -164 0
-125 -164 0
-164 -206 0
-93 -164 0
-125 -145 0
-145 -206 0
-93 -145 0
-125 -206 0
-93 -125 0
-93 -206 0
-87 -193 0
-193 -223 0
-79 -193 0
-158 -193 0
-87 -223 0
-79 -87 0
-87 -158 0
-79 -223 0
-158 -223 0
-79 -158 0
-184 -232 0
-109 -232 0
-197 -232 0
-134 -232 0
-109 -184 0
-184 -197 0
-134 -184 0
-109 -197 0
-109 -134 0
-134 -197 0
-102 -222 0
-44 -102 0
-102 -133 0
-102 -170 0
-44 -222 0
-133 -222 0
-170 -222 0
-44 -133 0
-44 -170 0
-133 -170 0
-157 -228 0
-43 -228 0
-119 -228 0
-228 -235 0
-186 -228 0
-42 -228 0
-43 -157 0
-119 -157 0
-157 -235 0
-157 -186 0
-42 -157 0
-43 -119 0
-43 -235 0
-43 -186 0
-42 -43 0
-119 -235 0
-119 -186 0
-42 -119 0
-186 -235 0
-42 -235 0
-42 -186 0
-41 -74 0
-40 -74 0
-70 -74 0
-39 -74 0
-69 -74 0
-64 -74 0
-40 -41 0
-41 -70 0
-39 -41 0
-41 -69 0
-41 -64 0
-40 -70 0
-39 -40 0
-40 -69 0
-40 -64 0
-39 -70 0
-69 -70 0
-64 -70 0
-39 -69 0
-39 -64 0
-64 -69 0
-38 -63 0
-38 -59 0
-37 -38 0
-38 -57 0
-38 -54 0
-38 -50 0
-59 -63 0
-37 -63 0
-57 -63 0
-54 -63 0
-50 -63 0
-37 -59 0
-57 -59 0
-54 -59 0
-50 -59 0
-37 -57 0
-37 -54 0
-37 -50 0
-54 -57 0
-50 -57 0
-50 -54 0
-164 -193 0
-164 -228 0
-74 -164 0
-38 -164 0
-193 -228 0
-74 -193 0
-38 -193 0
-74 -228 0
-38 -228 0
-38 -74 0
-87 -145 0
-145 -157 0
-41 -145 0
-63 -145 0
-87 -157 0
-41 -87 0
-63 -87 0
-41 -157 0
-63 -157 0
-41 -63 0
-125 -223 0
-125 -232 0
-102 -125 0
-43 -125 0
-40 -125 0
-59 -125 0
-223 -232 0
-102 -223 0
-43 -223 0
-40 -223 0
-59 -223 0
-102 -232 0
-43 -232 0
-40 -232 0
-59 -232 0
-43 -102 0
-40 -102 0
-59 -102 0
-40 -43 0
-43 -59 0
-40 -59 0
-79 -206 0
-184 -206 0
-206 -222 0
-119 -206 0
-70 -206 0
-37 -206 0
-79 -184 0
-79 -222 0
-79 -119 0
-70 -79 0
-37 -79 0
-184 -222 0
-119 -184 0
-70 -184 0
-37 -184 0
-119 -222 0
-70 -222 0
-37 -222 0
-70 -119 0
-37 -119 0
-37 -70 0
-93 -158 0
-93 -109 0
-44 -93 0
-93 -235 0
-39 -93 0
-57 -93 0
-109 -158 0
-44 -158 0
-158 -235 0
-39 -158 0
-57 -158 0
-44 -109 0
-109 -235 0
-39 -109 0
-57 -109 0
-44 -235 0
-39 -44 0
-44 -57 0
-39 -235 0
-57 -235 0
-39 -57 0
-133 -197 0
-186 -197 0
-69 -197 0
-54 -197 0
-133 -186 0
-69 -133 0
-54 -133 0
-69 -186 0
-54 -186 0
-54 -69 0
-134 -170 0
-42 -134 0
-64 -134 0
-50 -134 0
-42 -170 0
-64 -170 0
-50 -170 0
-42 -64 0
-42 -50 0
-50 -64 0
-36 -230 0
-34 -36 0
-32 -36 0
-36 -115 0
-34 -230 0
-32 -230 0
-115 -230 0
-32 -34 0
-34 -115 0
-32 -115 0
-142 -147 0
-106 -142 0
-31 -142 0
-142 -213 0
-106 -147 0
-31 -147 0
-147 -213 0
-31 -106 0
-106 -213 0
-31 -213 0
-150 -216 0
-120 -216 0
-173 -216 0
-126 -216 0
-120 -150 0
-150 -173 0
-126 -150 0
-120 -173 0
-120 -126 0
-126 -173 0
-179 -229 0
-76 -179 0
-30 -179 0
-76 -229 0
-30 -229 0
-30 -76 0
-29 -73 0
-73 -205 0
-73 -92 0
-29 -205 0
-29 -92 0
-92 -205 0
-36 -142 0
-36 -216 0
-36 -179 0
-36 -73 0
-142 -216 0
-142 -179 0
-73 -142 0
-179 -216 0
-73 -216 0
-73 -179 0
-147 -230 0
-150 -230 0
-229 -230 0
-29 -230 0
-147 -150 0
-147 -229 0
-29 -147 0
-150 -229 0
-29 -150 0
-29 -229 0
-34 -106 0
-34 -120 0
-106 -120 0
-31 -32 0
-32 -173 0
-32 -76 0
-32 -205 0
-31 -173 0
-31 -76 0
-31 -205 0
-76 -173 0
-173 -205 0
-76 -205 0
-115 -213 0
-115 -126 0
-30 -115 0
-92 -115 0
-126 -213 0
-30 -213 0
-92 -213 0
-30 -126 0
-92 -126 0
-30 -92 0
-113 -116 0
-113 -167 0
-116 -167 0
-28 -175 0
-153 -175 0
-26 -175 0
-175 -209 0
-28 -153 0
-26 -28 0
-28 -209 0
-26 -153 0
-153 -209 0
-26 -209 0
-90 -219 0
-80 -219 0
-160 -219 0
-219 -226 0
-80 -90 0
-90 -160 0
-90 -226 0
-80 -160 0
-80 -226 0
-160 -226 0
-35 -231 0
-35 -180 0
-33 -35 0
-35 -75 0
-180 -231 0
-33 -231 0
-75 -231 0
-33 -180 0
-75 -180 0
-33 -75 0
-141 -146 0
-25 -141 0
-105 -141 0
-67 -141 0
-25 -146 0
-105 -146 0
-67 -146 0
-25 -105 0
-25 -67 0
-67 -105 0
-113 -175 0
-113 -219 0
-35 -113 0
-113 -141 0
-175 -219 0
-35 -175 0
-141 -175 0
-35 -219 0
-141 -219 0
-35 -141 0
-28 -116 0
-90 -116 0
-116 -231 0
-116 -146 0
-28 -90 0
-28 -231 0
-28 -146 0
-90 -231 0
-90 -146 0
-146 -231 0
-153 -167 0
-80 -167 0
-167 -180 0
-25 -167 0
-80 -153 0
-153 -180 0
-25 -153 0
-80 -180 0
-25 -80 0
-25 -180 0
-26 -160 0
-26 -33 0
-26 -105 0
-33 -160 0
-105 -160 0
-33 -105 0
-209 -226 0
-75 -209 0
-67 -209 0
-75 -226 0
-67 -226 0
-67 -75 0
-162 -202 0
-182 -191 0
-182 -199 0
-191 -199 0
-24 -204 0
-23 -24 0
-23 -204 0
-182 -202 0
-24 -202 0
-24 -182 0
-162 -191 0
-162 -204 0
-191 -204 0
-23 -199 0
-183 -233 0
-196 -233 0
-127 -233 0
-135 -233 0
-22 -233 0
-183 -196 0
-127 -183 0
-135 -183 0
-22 -183 0
-127 -196 0
-135 -196 0
-22 -196 0
-127 -135 0
-22 -127 0
-22 -135 0
-21 -139 0
-96 -139 0
-91 -139 0
-19 -139 0
-18 -139 0
-21 -96 0
-21 -91 0
-19 -21 0
-18 -21 0
-91 -96 0
-19 -96 0
-18 -96 0
-19 -91 0
-18 -91 0
-18 -19 0
-101 -221 0
-101 -132 0
-101 -163 0
-101 -171 0
-101 -227 0
-132 -221 0
-163 -221 0
-171 -221 0
-221 -227 0
-132 -163 0
-132 -171 0
-132 -227 0
-163 -171 0
-163 -227 0
-171 -227 0
-187 -192 0
-17 -72 0
-17 -155 0
-17 -66 0
-72 -155 0
-66 -72 0
-66 -155 0
-16 -62 0
-53 -62 0
-62 -201 0
-16 -53 0
-16 -201 0
-53 -201 0
-139 -233 0
-101 -233 0
-17 -233 0
-62 -233 0
-101 -139 0
-17 -139 0
-62 -139 0
-17 -101 0
-62 -101 0
-17 -62 0
-21 -183 0
-183 -221 0
-72 -183 0
-16 -183 0
-21 -221 0
-21 -72 0
-16 -21 0
-72 -221 0
-16 -221 0
-16 -72 0
-96 -196 0
-132 -196 0
-187 -196 0
-96 -132 0
-96 -187 0
-132 -187 0
-91 -127 0
-127 -163 0
-127 -192 0
-91 -163 0
-91 -192 0
-163 -192 0
-19 -135 0
-135 -171 0
-135 -155 0
-53 -135 0
-19 -171 0
-19 -155 0
-19 -53 0
-155 -171 0
-53 -171 0
-53 -155 0
-18 -22 0
-22 -227 0
-22 -66 0
-22 -201 0
-18 -227 0
-18 -66 0
-18 -201 0
-66 -227 0
-201 -227 0
-66 -201 0
-15 -117 0
-14 -15 0
-15 -104 0
-15 -107 0
-15 -85 0
-13 -15 0
-14 -117 0
-104 -117 0
-107 -117 0
-85 -117 0
-13 -117 0
-14 -104 0
-14 -107 0
-14 -85 0
-13 -14 0
-104 -107 0
-85 -104 0
-13 -104 0
-85 -107 0
-13 -107 0
-13 -85 0
-144 -148 0
-144 -151 0
-94 -144 0
-121 -144 0
-11 -144 0
-60 -144 0
-148 -151 0
-94 -148 0
-121 -148 0
-11 -148 0
-60 -148 0
-94 -151 0
-121 -151 0
-11 -151 0
-60 -151 0
-94 -121 0
-11 -94 0
-60 -94 0
-11 -121 0
-60 -121 0
-11 -60 0
-112 -128 0
-83 -112 0
-77 -112 0
-112 -166 0
-112 -140 0
-112 -178 0
-83 -128 0
-77 -128 0
-128 -166 0
-128 -140 0
-128 -178 0
-77 -83 0
-83 -166 0
-83 -140 0
-83 -178 0
-77 -166 0
-77 -140 0
-77 -178 0
-140 -166 0
-166 -178 0
-140 -178 0
-9 -165 0
-9 -176 0
-9 -124 0
-9 -207 0
-165 -176 0
-124 -165 0
-165 -207 0
-124 -176 0
-176 -207 0
-124 -207 0
-188 -194 0
-188 -220 0
-188 -224 0
-78 -188 0
-194 -220 0
-194 -224 0
-78 -194 0
-220 -224 0
-78 -220 0
-78 -224 0
-8 -234 0
-8 -185 0
-8 -108 0
-8 -195 0
-185 -234 0
-108 -234 0
-195 -234 0
-108 -185 0
-185 -195 0
-108 -195 0
-7 -138 0
-7 -20 0
-7 -68 0
-7 -95 0
-20 -138 0
-68 -138 0
-95 -138 0
-20 -68 0
-20 -95 0
-68 -95 0
-15 -144 0
-15 -112 0
-9 -15 0
-15 -188 0
-112 -144 0
-9 -144 0
-144 -188 0
-9 -112 0
-112 -188 0
-9 -188 0
-117 -148 0
-117 -128 0
-117 -165 0
-117 -194 0
-128 -148 0
-148 -165 0
-148 -194 0
-128 -165 0
-128 -194 0
-165 -194 0
-14 -151 0
-14 -83 0
-14 -176 0
-14 -220 0
-8 -14 0
-7 -14 0
-83 -151 0
-151 -176 0
-151 -220 0
-8 -151 0
-7 -151 0
-83 -176 0
-83 -220 0
-8 -83 0
-7 -83 0
-176 -220 0
-8 -176 0
-7 -176 0
-8 -220 0
-7 -220 0
-7 -8 0
-94 -104 0
-77 -104 0
-104 -124 0
-104 -224 0
-104 -234 0
-104 -138 0
-77 -94 0
-94 -124 0
-94 -224 0
-94 -234 0
-94 -138 0
-77 -124 0
-77 -224 0
-77 -234 0
-77 -138 0
-124 -224 0
-124 -234 0
-124 -138 0
-224 -234 0
-138 -224 0
-138 -234 0
-107 -121 0
-107 -166 0
-107 -207 0
-78 -107 0
-107 -185 0
-20 -107 0
-121 -166 0
-121 -207 0
-78 -121 0
-121 -185 0
-20 -121 0
-166 -207 0
-78 -166 0
-166 -185 0
-20 -166 0
-78 -207 0
-185 -207 0
-20 -207 0
-78 -185 0
-20 -78 0
-20 -185 0
-11 -85 0
-85 -140 0
-85 -108 0
-68 -85 0
-11 -140 0
-11 -108 0
-11 -68 0
-108 -140 0
-68 -140 0
-68 -108 0
-13 -60 0
-13 -178 0
-13 -195 0
-13 -95 0
-60 -178 0
-60 -195 0
-60 -95 0
-178 -195 0
-95 -178 0
-95 -195 0
-6 -110 0
-5 -6 0
-4 -6 0
-6 -100 0
-6 -131 0
-5 -110 0
-4 -110 0
-100 -110 0
-110 -131 0
-4 -5 0
-5 -100 0
-5 -131 0
-4 -100 0
-4 -131 0
-100 -131 0
-97 -174 0
-27 -97 0
-97 -154 0
-97 -208 0
-3 -97 0
-27 -174 0
-154 -174 0
-174 -208 0
-3 -174 0
-27 -154 0
-27 -208 0
-3 -27 0
-154 -208 0
-3 -154 0
-3 -208 0
-103 -218 0
-89 -103 0
-82 -103 0
-103 -225 0
-103 -152 0
-89 -218 0
-82 -218 0
-218 -225 0
-152 -218 0
-82 -89 0
-89 -225 0
-89 -152 0
-82 -225 0
-82 -152 0
-152 -225 0
-214 -217 0
-149 -214 0
-149 -217 0
-12 -84 0
-71 -84 0
-84 -143 0
-2 -84 0
-12 -71 0
-12 -143 0
-2 -12 0
-71 -143 0
-2 -71 0
-2 -143 0
-10 -61 0
-1 -10 0
-10 -111 0
-10 -56 0
-1 -61 0
-61 -111 0
-56 -61 0
-1 -111 0
-1 -56 0
-56 -111 0
-6 -97 0
-6 -103 0
-6 -214 0
-6 -84 0
-6 -10 0
-97 -103 0
-97 -214 0
-84 -97 0
-10 -97 0
-103 -214 0
-84 -103 0
-10 -103 0
-84 -214 0
-10 -214 0
-10 -84 0
-110 -174 0
-110 -218 0
-110 -217 0
-12 -110 0
-61 -110 0
-174 -218 0
-174 -217 0
-12 -174 0
-61 -174 0
-217 -218 0
-12 -218 0
-61 -218 0
-12 -217 0
-61 -217 0
-12 -61 0
-5 -27 0
-5 -89 0
-5 -149 0
-5 -71 0
-1 -5 0
-27 -89 0
-27 -149 0
-27 -71 0
-1 -27 0
-89 -149 0
-71 -89 0
-1 -89 0
-71 -149 0
-1 -149 0
-1 -71 0
-4 -154 0
-4 -82 0
-4 -143 0
-4 -111 0
-82 -154 0
-143 -154 0
-111 -154 0
-82 -143 0
-82 -111 0
-111 -143 0
-100 -208 0
-100 -225 0
-2 -100 0
-56 -100 0
-208 -225 0
-2 -208 0
-56 -208 0
-2 -225 0
-56 -225 0
-2 -56 0
-3 -131 0
-131 -152 0
-3 -152 0
-49 -137 0
-49 -88 0
-49 -99 0
-88 -137 0
-99 -137 0
-88 -99 0
-145 -164 0
-164 -193 0
-87 -164 0
-145 -193 0
-87 -145 0
-87 -193 0
-36 -230 0
-36 -142 0
-36 -147 0
-36 -216 0
-36 -150 0
-142 -230 0
-147 -230 0
-216 -230 0
-150 -230 0
-142 -147 0
-142 -216 0
-142 -150 0
-147 -216 0
-147 -150 0
-150 -216 0
-183 -233 0
-139 -233 0
-21 -233 0
-101 -233 0
-221 -233 0
-139 -183 0
-21 -183 0
-101 -183 0
-183 -221 0
-21 -139 0
-101 -139 0
-139 -221 0
-21 -101 0
-21 -221 0
-101 -221 0
-15 -117 0
-15 -144 0
-15 -148 0
-15 -112 0
-15 -128 0
-117 -144 0
-117 -148 0
-112 -117 0
-117 -128 0
-144 -148 0
-112 -144 0
-128 -144 0
-112 -148 0
-128 -148 0
-112 -128 0
-6 -110 0
-5 -6 0
-6 -97 0
-6 -174 0
-6 -27 0
-6 -103 0
-6 -218 0
-6 -89 0
-5 -110 0
-97 -110 0
-110 -174 0
-27 -110 0
-103 -110 0
-110 -218 0
-89 -110 0
-5 -97 0
-5 -174 0
-5 -27 0
-5 -103 0
-5 -218 0
-5 -89 0
-97 -174 0
-27 -97 0
-97 -103 0
-97 -218 0
-89 -97 0
-27 -174 0
-103 -174 0
-174 -218 0
-89 -174 0
-27 -103 0
-27 -218 0
-27 -89 0
-103 -218 0
-89 -103 0
-89 -218 0
-130 -190 0
-125 -206 0
-93 -125 0
-125 -223 0
-79 -125 0
-125 -158 0
-93 -206 0
-206 -223 0
-79 -206 0
-158 -206 0
-93 -223 0
-79 -93 0
-93 -158 0
-79 -223 0
-158 -223 0
-79 -158 0
-34 -106 0
-34 -120 0
-106 -120 0
-113 -116 0
-113 -167 0
-116 -167 0
-162 -202 0
-127 -196 0
-96 -196 0
-91 -196 0
-132 -196 0
-163 -196 0
-96 -127 0
-91 -127 0
-127 -132 0
-127 -163 0
-91 -96 0
-96 -132 0
-96 -163 0
-91 -132 0
-91 -163 0
-132 -163 0
-14 -104 0
-14 -107 0
-14 -151 0
-14 -94 0
-14 -121 0
-14 -83 0
-14 -77 0
-14 -166 0
-104 -107 0
-104 -151 0
-94 -104 0
-104 -121 0
-83 -104 0
-77 -104 0
-104 -166 0
-107 -151 0
-94 -107 0
-107 -121 0
-83 -107 0
-77 -107 0
-107 -166 0
-94 -151 0
-121 -151 0
-83 -151 0
-77 -151 0
-151 -166 0
-94 -121 0
-83 -94 0
-77 -94 0
-94 -166 0
-83 -121 0
-77 -121 0
-121 -166 0
-77 -83 0
-83 -166 0
-77 -166 0
-4 -100 0
-4 -154 0
-4 -208 0
-4 -82 0
-4 -225 0
-100 -154 0
-100 -208 0
-82 -100 0
-100 -225 0
-154 -208 0
-82 -154 0
-154 -225 0
-82 -208 0
-208 -225 0
-82 -225 0
-169 -172 0
-169 -177 0
-172 -177 0
-32 -115 0
-31 -32 0
-32 -213 0
-32 -173 0
-32 -126 0
-31 -115 0
-115 -213 0
-115 -173 0
-115 -126 0
-31 -213 0
-31 -173 0
-31 -126 0
-173 -213 0
-126 -213 0
-126 -173 0
-22 -135 0
-19 -135 0
-18 -135 0
-135 -171 0
-135 -227 0
-19 -22 0
-18 -22 0
-22 -171 0
-22 -227 0
-18 -19 0
-19 -171 0
-19 -227 0
-18 -171 0
-18 -227 0
-171 -227 0
-13 -85 0
-11 -85 0
-60 -85 0
-85 -140 0
-85 -178 0
-11 -13 0
-13 -60 0
-13 -140 0
-13 -178 0
-11 -60 0
-11 -140 0
-11 -178 0
-60 -140 0
-60 -178 0
-140 -178 0
-3 -131 0
-131 -152 0
-3 -152 0
-48 -200 0
-48 -211 0
-48 -215 0
-200 -211 0
-200 -215 0
-211 -215 0
-9 -165 0
-9 -188 0
-9 -194 0
-165 -188 0
-165 -194 0
-188 -194 0
-214 -217 0
-149 -214 0
-149 -217 0
-46 -156 0
-46 -86 0
-46 -52 0
-86 -156 0
-52 -156 0
-52 -86 0
-184 -232 0
-109 -232 0
-102 -232 0
-222 -232 0
-44 -232 0
-109 -184 0
-102 -184 0
-184 -222 0
-44 -184 0
-102 -109 0
-109 -222 0
-44 -109 0
-102 -222 0
-44 -102 0
-44 -222 0
-28 -175 0
-153 -175 0
-175 -219 0
-90 -175 0
-80 -175 0
-28 -153 0
-28 -219 0
-28 -90 0
-28 -80 0
-153 -219 0
-90 -153 0
-80 -153 0
-90 -219 0
-80 -219 0
-80 -90 0
-182 -191 0
-24 -182 0
-182 -204 0
-24 -191 0
-191 -204 0
-24 -204 0
-187 -192 0
-124 -176 0
-176 -207 0
-176 -220 0
-176 -224 0
-78 -176 0
-124 -207 0
-124 -220 0
-124 -224 0
-78 -124 0
-207 -220 0
-207 -224 0
-78 -207 0
-220 -224 0
-78 -220 0
-78 -224 0
-122 -123 0
-122 -168 0
-47 -122 0
-123 -168 0
-47 -123 0
-47 -168 0
-65 -114 0
-65 -118 0
-65 -203 0
-65 -161 0
-45 -65 0
-114 -118 0
-114 -203 0
-114 -161 0
-45 -114 0
-118 -203 0
-118 -161 0
-45 -118 0
-161 -203 0
-45 -203 0
-45 -161 0
-134 -197 0
-133 -197 0
-170 -197 0
-133 -134 0
-134 -170 0
-133 -170 0
-26 -209 0
-26 -160 0
-26 -226 0
-160 -209 0
-209 -226 0
-160 -226 0
-23 -199 0
-157 -228 0
-74 -228 0
-41 -228 0
-38 -228 0
-63 -228 0
-74 -157 0
-41 -157 0
-38 -157 0
-63 -157 0
-41 -74 0
-38 -74 0
-63 -74 0
-38 -41 0
-41 -63 0
-38 -63 0
-179 -229 0
-73 -179 0
-29 -179 0
-73 -229 0
-29 -229 0
-29 -73 0
-17 -72 0
-17 -62 0
-16 -17 0
-62 -72 0
-16 -72 0
-16 -62 0
-12 -84 0
-71 -84 0
-10 -84 0
-61 -84 0
-1 -84 0
-12 -71 0
-10 -12 0
-12 -61 0
-1 -12 0
-10 -71 0
-61 -71 0
-1 -71 0
-10 -61 0
-1 -10 0
-1 -61 0
-136 -212 0
-98 -136 0
-58 -136 0
-98 -212 0
-58 -212 0
-58 -98 0
-43 -119 0
-43 -235 0
-40 -43 0
-43 -70 0
-39 -43 0
-43 -59 0
-37 -43 0
-43 -57 0
-119 -235 0
-40 -119 0
-70 -119 0
-39 -119 0
-59 -119 0
-37 -119 0
-57 -119 0
-40 -235 0
-70 -235 0
-39 -235 0
-59 -235 0
-37 -235 0
-57 -235 0
-40 -70 0
-39 -40 0
-40 -59 0
-37 -40 0
-40 -57 0
-39 -70 0
-59 -70 0
-37 -70 0
-57 -70 0
-39 -59 0
-37 -39 0
-39 -57 0
-37 -59 0
-57 -59 0
-37 -57 0
-35 -231 0
-35 -180 0
-35 -141 0
-35 -146 0
-25 -35 0
-180 -231 0
-141 -231 0
-146 -231 0
-25 -231 0
-141 -180 0
-146 -180 0
-25 -180 0
-141 -146 0
-25 -141 0
-25 -146 0
-8 -234 0
-8 -185 0
-7 -8 0
-8 -138 0
-8 -20 0
-185 -234 0
-7 -234 0
-138 -234 0
-20 -234 0
-7 -185 0
-138 -185 0
-20 -185 0
-7 -138 0
-7 -20 0
-20 -138 0
-2 -143 0
-111 -143 0
-56 -143 0
-2 -111 0
-2 -56 0
-56 -111 0
-81 -159 0
-181 -189 0
-181 -198 0
-55 -181 0
-129 -181 0
-51 -181 0
-189 -198 0
-55 -189 0
-129 -189 0
-51 -189 0
-55 -198 0
-129 -198 0
-51 -198 0
-55 -129 0
-51 -55 0
-51 -129 0
-42 -186 0
-69 -186 0
-64 -186 0
-54 -186 0
-50 -186 0
-42 -69 0
-42 -64 0
-42 -54 0
-42 -50 0
-64 -69 0
-54 -69 0
-50 -69 0
-54 -64 0
-50 -64 0
-50 -54 0
-30 -76 0
-76 -205 0
-76 -92 0
-30 -205 0
-30 -92 0
-92 -205 0
-33 -75 0
-33 -105 0
-33 -67 0
-75 -105 0
-67 -75 0
-67 -105 0
-66 -155 0
-53 -155 0
-155 -201 0
-53 -66 0
-66 -201 0
-53 -201 0
-108 -195 0
-68 -108 0
-95 -108 0
-68 -195 0
-95 -195 0
-68 -95 0
